c Generated map
c Size: 12 * 12, weights in range: 1 to 10, walls: False, with ratio 0.0
c dim 4 of 5
c
p sp 144 264
c graph contains 144 nodes and 264 arcs
c
a 1 13 4
a 13 1 4
a 1 2 7
a 2 1 7
a 2 14 5
a 14 2 5
a 2 3 10
a 3 2 10
a 3 15 6
a 15 3 6
a 3 4 7
a 4 3 7
a 4 16 8
a 16 4 8
a 4 5 5
a 5 4 5
a 5 17 9
a 17 5 9
a 5 6 1
a 6 5 1
a 6 18 1
a 18 6 1
a 6 7 3
a 7 6 3
a 7 19 9
a 19 7 9
a 7 8 8
a 8 7 8
a 8 20 10
a 20 8 10
a 8 9 2
a 9 8 2
a 9 21 1
a 21 9 1
a 9 10 9
a 10 9 9
a 10 22 5
a 22 10 5
a 10 11 7
a 11 10 7
a 11 23 2
a 23 11 2
a 11 12 8
a 12 11 8
a 12 24 2
a 24 12 2
a 13 25 4
a 25 13 4
a 13 14 3
a 14 13 3
a 14 26 9
a 26 14 9
a 14 15 8
a 15 14 8
a 15 27 7
a 27 15 7
a 15 16 6
a 16 15 6
a 16 28 8
a 28 16 8
a 16 17 1
a 17 16 1
a 17 29 3
a 29 17 3
a 17 18 9
a 18 17 9
a 18 30 4
a 30 18 4
a 18 19 2
a 19 18 2
a 19 31 6
a 31 19 6
a 19 20 10
a 20 19 10
a 20 32 2
a 32 20 2
a 20 21 10
a 21 20 10
a 21 33 2
a 33 21 2
a 21 22 5
a 22 21 5
a 22 34 9
a 34 22 9
a 22 23 1
a 23 22 1
a 23 35 10
a 35 23 10
a 23 24 7
a 24 23 7
a 24 36 9
a 36 24 9
a 25 37 9
a 37 25 9
a 25 26 1
a 26 25 1
a 26 38 10
a 38 26 10
a 26 27 9
a 27 26 9
a 27 39 2
a 39 27 2
a 27 28 7
a 28 27 7
a 28 40 5
a 40 28 5
a 28 29 7
a 29 28 7
a 29 41 3
a 41 29 3
a 29 30 8
a 30 29 8
a 30 42 8
a 42 30 8
a 30 31 8
a 31 30 8
a 31 43 10
a 43 31 10
a 31 32 4
a 32 31 4
a 32 44 6
a 44 32 6
a 32 33 5
a 33 32 5
a 33 45 9
a 45 33 9
a 33 34 2
a 34 33 2
a 34 46 3
a 46 34 3
a 34 35 9
a 35 34 9
a 35 47 3
a 47 35 3
a 35 36 3
a 36 35 3
a 36 48 2
a 48 36 2
a 37 49 6
a 49 37 6
a 37 38 1
a 38 37 1
a 38 50 1
a 50 38 1
a 38 39 1
a 39 38 1
a 39 51 6
a 51 39 6
a 39 40 6
a 40 39 6
a 40 52 8
a 52 40 8
a 40 41 1
a 41 40 1
a 41 53 5
a 53 41 5
a 41 42 9
a 42 41 9
a 42 54 9
a 54 42 9
a 42 43 3
a 43 42 3
a 43 55 1
a 55 43 1
a 43 44 5
a 44 43 5
a 44 56 6
a 56 44 6
a 44 45 3
a 45 44 3
a 45 57 8
a 57 45 8
a 45 46 4
a 46 45 4
a 46 58 7
a 58 46 7
a 46 47 10
a 47 46 10
a 47 59 1
a 59 47 1
a 47 48 8
a 48 47 8
a 48 60 2
a 60 48 2
a 49 61 4
a 61 49 4
a 49 50 6
a 50 49 6
a 50 62 8
a 62 50 8
a 50 51 4
a 51 50 4
a 51 63 5
a 63 51 5
a 51 52 2
a 52 51 2
a 52 64 7
a 64 52 7
a 52 53 8
a 53 52 8
a 53 65 1
a 65 53 1
a 53 54 3
a 54 53 3
a 54 66 5
a 66 54 5
a 54 55 6
a 55 54 6
a 55 67 10
a 67 55 10
a 55 56 6
a 56 55 6
a 56 68 7
a 68 56 7
a 56 57 3
a 57 56 3
a 57 69 3
a 69 57 3
a 57 58 4
a 58 57 4
a 58 70 4
a 70 58 4
a 58 59 10
a 59 58 10
a 59 71 5
a 71 59 5
a 59 60 6
a 60 59 6
a 60 72 9
a 72 60 9
a 61 73 6
a 73 61 6
a 61 62 7
a 62 61 7
a 62 74 2
a 74 62 2
a 62 63 5
a 63 62 5
a 63 75 2
a 75 63 2
a 63 64 6
a 64 63 6
a 64 76 2
a 76 64 2
a 64 65 4
a 65 64 4
a 65 77 10
a 77 65 10
a 65 66 2
a 66 65 2
a 66 78 9
a 78 66 9
a 66 67 6
a 67 66 6
a 67 79 9
a 79 67 9
a 67 68 3
a 68 67 3
a 68 80 5
a 80 68 5
a 68 69 2
a 69 68 2
a 69 81 9
a 81 69 9
a 69 70 4
a 70 69 4
a 70 82 1
a 82 70 1
a 70 71 3
a 71 70 3
a 71 83 6
a 83 71 6
a 71 72 2
a 72 71 2
a 72 84 5
a 84 72 5
a 73 85 5
a 85 73 5
a 73 74 1
a 74 73 1
a 74 86 9
a 86 74 9
a 74 75 10
a 75 74 10
a 75 87 2
a 87 75 2
a 75 76 10
a 76 75 10
a 76 88 4
a 88 76 4
a 76 77 1
a 77 76 1
a 77 89 9
a 89 77 9
a 77 78 1
a 78 77 1
a 78 90 6
a 90 78 6
a 78 79 5
a 79 78 5
a 79 91 8
a 91 79 8
a 79 80 4
a 80 79 4
a 80 92 7
a 92 80 7
a 80 81 10
a 81 80 10
a 81 93 1
a 93 81 1
a 81 82 7
a 82 81 7
a 82 94 9
a 94 82 9
a 82 83 6
a 83 82 6
a 83 95 1
a 95 83 1
a 83 84 8
a 84 83 8
a 84 96 3
a 96 84 3
a 85 97 10
a 97 85 10
a 85 86 1
a 86 85 1
a 86 98 9
a 98 86 9
a 86 87 7
a 87 86 7
a 87 99 6
a 99 87 6
a 87 88 10
a 88 87 10
a 88 100 7
a 100 88 7
a 88 89 4
a 89 88 4
a 89 101 10
a 101 89 10
a 89 90 5
a 90 89 5
a 90 102 6
a 102 90 6
a 90 91 5
a 91 90 5
a 91 103 10
a 103 91 10
a 91 92 1
a 92 91 1
a 92 104 8
a 104 92 8
a 92 93 3
a 93 92 3
a 93 105 7
a 105 93 7
a 93 94 6
a 94 93 6
a 94 106 1
a 106 94 1
a 94 95 9
a 95 94 9
a 95 107 5
a 107 95 5
a 95 96 1
a 96 95 1
a 96 108 10
a 108 96 10
a 97 109 9
a 109 97 9
a 97 98 8
a 98 97 8
a 98 110 8
a 110 98 8
a 98 99 4
a 99 98 4
a 99 111 4
a 111 99 4
a 99 100 3
a 100 99 3
a 100 112 10
a 112 100 10
a 100 101 9
a 101 100 9
a 101 113 1
a 113 101 1
a 101 102 9
a 102 101 9
a 102 114 2
a 114 102 2
a 102 103 9
a 103 102 9
a 103 115 8
a 115 103 8
a 103 104 1
a 104 103 1
a 104 116 1
a 116 104 1
a 104 105 3
a 105 104 3
a 105 117 6
a 117 105 6
a 105 106 1
a 106 105 1
a 106 118 5
a 118 106 5
a 106 107 5
a 107 106 5
a 107 119 3
a 119 107 3
a 107 108 8
a 108 107 8
a 108 120 10
a 120 108 10
a 109 121 4
a 121 109 4
a 109 110 2
a 110 109 2
a 110 122 8
a 122 110 8
a 110 111 4
a 111 110 4
a 111 123 1
a 123 111 1
a 111 112 7
a 112 111 7
a 112 124 10
a 124 112 10
a 112 113 5
a 113 112 5
a 113 125 4
a 125 113 4
a 113 114 6
a 114 113 6
a 114 126 4
a 126 114 4
a 114 115 6
a 115 114 6
a 115 127 3
a 127 115 3
a 115 116 2
a 116 115 2
a 116 128 8
a 128 116 8
a 116 117 6
a 117 116 6
a 117 129 6
a 129 117 6
a 117 118 9
a 118 117 9
a 118 130 8
a 130 118 8
a 118 119 1
a 119 118 1
a 119 131 1
a 131 119 1
a 119 120 4
a 120 119 4
a 120 132 1
a 132 120 1
a 121 133 10
a 133 121 10
a 121 122 10
a 122 121 10
a 122 134 3
a 134 122 3
a 122 123 8
a 123 122 8
a 123 135 6
a 135 123 6
a 123 124 4
a 124 123 4
a 124 136 3
a 136 124 3
a 124 125 9
a 125 124 9
a 125 137 1
a 137 125 1
a 125 126 6
a 126 125 6
a 126 138 9
a 138 126 9
a 126 127 8
a 127 126 8
a 127 139 8
a 139 127 8
a 127 128 5
a 128 127 5
a 128 140 1
a 140 128 1
a 128 129 1
a 129 128 1
a 129 141 7
a 141 129 7
a 129 130 1
a 130 129 1
a 130 142 10
a 142 130 10
a 130 131 8
a 131 130 8
a 131 143 5
a 143 131 5
a 131 132 9
a 132 131 9
a 132 144 6
a 144 132 6
a 133 134 6
a 134 133 6
a 134 135 10
a 135 134 10
a 135 136 2
a 136 135 2
a 136 137 2
a 137 136 2
a 137 138 10
a 138 137 10
a 138 139 4
a 139 138 4
a 139 140 9
a 140 139 9
a 140 141 8
a 141 140 8
a 141 142 2
a 142 141 2
a 142 143 7
a 143 142 7
a 143 144 5
a 144 143 5
